#######################
Slurm job id: 17497813_48
Running on machine: p77
Running cmd: /nfs/shared/static-builds/gurobi1003 SOFTMEMLIMIT=125 MIPFocus=0 Presolve=2 TimeLimit=500 seed=17 /nfs/models/miplib2010/k16x240.mps.bz2
#######################
Set parameter TimeLimit to value 500
Set parameter SoftMemLimit to value 125
Set parameter LogFile to value 1003-MIPFocus0-Presolve2-TimeLimit500-k16x240-7.log
Set parameter Presolve to value 2
Set parameter Seed to value 17
Using license file /opt/gurobi/gurobi.lic

Gurobi Optimizer version 10.0.3 build v10.0.3rc0 (linux64)
Copyright (c) 2023, Gurobi Optimization, LLC

Read MPS format model from file /nfs/models/miplib2010/k16x240.mps.bz2
Reading time = 0.00 seconds
k16x240: 256 rows, 480 columns, 960 nonzeros

CPU model: Intel(R) Xeon(R) E-2388G CPU @ 3.20GHz, instruction set [SSE2|AVX|AVX2|AVX512]
Thread count: 8 physical cores, 16 logical processors, using up to 16 threads

Optimize a model with 256 rows, 480 columns and 960 nonzeros
Model fingerprint: 0x4e80885f
Variable types: 240 continuous, 240 integer (240 binary)
Coefficient statistics:
  Matrix range     [1e+00, 1e+03]
  Objective range  [1e+00, 1e+03]
  Bounds range     [1e+00, 1e+03]
  RHS range        [4e+00, 4e+02]
Found heuristic solution: objective 21882.000000
Presolve time: 0.00s
Presolved: 256 rows, 480 columns, 960 nonzeros
Variable types: 240 continuous, 240 integer (240 binary)
Root relaxation presolve removed 241 rows and 240 columns
Root relaxation presolved: 15 rows, 240 columns, 450 nonzeros


Root relaxation: objective 2.769838e+03, 16 iterations, 0.00 seconds (0.00 work units)

    Nodes    |    Current Node    |     Objective Bounds      |     Work
 Expl Unexpl |  Obj  Depth IntInf | Incumbent    BestBd   Gap | It/Node Time

     0     0 2769.83800    0   14 21882.0000 2769.83800  87.3%     -    0s
H    0     0                    11359.000000 2769.83800  75.6%     -    0s
H    0     0                    11271.000000 2769.83800  75.4%     -    0s
H    0     0                    11261.000000 8084.69631  28.2%     -    0s
H    0     0                    11240.000000 8084.69631  28.1%     -    0s
     0     0 8084.69631    0   26 11240.0000 8084.69631  28.1%     -    0s
H    0     0                    11079.000000 8084.69631  27.0%     -    0s
     0     0 8528.16906    0   24 11079.0000 8528.16906  23.0%     -    0s
     0     0 8539.15185    0   34 11079.0000 8539.15185  22.9%     -    0s
H    0     0                    11036.000000 8548.03675  22.5%     -    0s
     0     0 8548.03675    0   29 11036.0000 8548.03675  22.5%     -    0s
H    0     0                    11001.000000 8707.67202  20.8%     -    0s
     0     0 8707.67202    0   35 11001.0000 8707.67202  20.8%     -    0s
H    0     0                    10923.000000 8707.67202  20.3%     -    0s
H    0     0                    10801.000000 8707.67202  19.4%     -    0s
H    0     0                    10779.000000 8756.82153  18.8%     -    0s
     0     0 8756.82153    0   30 10779.0000 8756.82153  18.8%     -    0s
     0     0 8759.07726    0   27 10779.0000 8759.07726  18.7%     -    0s
     0     0 8844.99400    0   32 10779.0000 8844.99400  17.9%     -    0s
     0     0 8861.88621    0   36 10779.0000 8861.88621  17.8%     -    0s
     0     0 8863.31088    0   36 10779.0000 8863.31088  17.8%     -    0s
     0     0 9023.51256    0   31 10779.0000 9023.51256  16.3%     -    0s
H    0     0                    10681.000000 9023.51256  15.5%     -    0s
     0     0 9026.20960    0   31 10681.0000 9026.20960  15.5%     -    0s
     0     0 9068.32422    0   31 10681.0000 9068.32422  15.1%     -    0s
     0     0 9068.32422    0   31 10681.0000 9068.32422  15.1%     -    0s
     0     2 9068.32422    0   31 10681.0000 9068.32422  15.1%     -    0s
H   37    40                    10678.000000 9302.54283  12.9%  48.2    0s
H  180   199                    10674.000000 9306.18482  12.8%  26.5    0s
 21731  9516 9955.98596   30   19 10674.0000 9907.81996  7.18%  25.7    5s
 59277 18563 10363.9852   31   21 10674.0000 10111.7780  5.27%  27.3   10s
 93772 21989     cutoff   43      10674.0000 10234.1146  4.12%  28.1   15s
 129190 20871     cutoff   47      10674.0000 10335.6202  3.17%  28.6   20s
 160941 14436     cutoff   39      10674.0000 10433.3606  2.25%  28.8   25s

Cutting planes:
  Lift-and-project: 18
  Cover: 77
  Implied bound: 22
  MIR: 200
  Flow cover: 343
  Flow path: 58
  Inf proof: 2
  Zero half: 10
  Network: 57
  Relax-and-lift: 4

Explored 189507 nodes (5298208 simplex iterations) in 28.90 seconds (48.42 work units)
Thread count was 16 (of 16 available processors)

Solution count 10: 10674 10678 10681 ... 11240

Optimal solution found (tolerance 1.00e-04)
Best objective 1.067400000000e+04, best bound 1.067338539032e+04, gap 0.0058%
